p cnf 395 1164
1 2 3 4 5 6 7 8 9 10 11 12 13 14 15 16 17 18 19 20 21 22 23 24 25 26 27 28 29 30 0
-1 -2 0
-1 -3 0
-1 -4 0
-1 -5 0
-1 -6 0
-1 -7 0
-1 -8 0
-1 -9 0
-1 -10 0
-1 -11 0
-1 -12 0
-1 -13 0
-1 -14 0
-1 -15 0
-1 -16 0
-1 -17 0
-1 -18 0
-1 -19 0
-1 -20 0
-1 -21 0
-1 -22 0
-1 -23 0
-1 -24 0
-1 -25 0
-1 -26 0
-1 -27 0
-1 -28 0
-1 -29 0
-1 -30 0
-2 -3 0
-2 -4 0
-2 -5 0
-2 -6 0
-2 -7 0
-2 -8 0
-2 -9 0
-2 -10 0
-2 -11 0
-2 -12 0
-2 -13 0
-2 -14 0
-2 -15 0
-2 -16 0
-2 -17 0
-2 -18 0
-2 -19 0
-2 -20 0
-2 -21 0
-2 -22 0
-2 -23 0
-2 -24 0
-2 -25 0
-2 -26 0
-2 -27 0
-2 -28 0
-2 -29 0
-2 -30 0
-3 -4 0
-3 -5 0
-3 -6 0
-3 -7 0
-3 -8 0
-3 -9 0
-3 -10 0
-3 -11 0
-3 -12 0
-3 -13 0
-3 -14 0
-3 -15 0
-3 -16 0
-3 -17 0
-3 -18 0
-3 -19 0
-3 -20 0
-3 -21 0
-3 -22 0
-3 -23 0
-3 -24 0
-3 -25 0
-3 -26 0
-3 -27 0
-3 -28 0
-3 -29 0
-3 -30 0
-4 -5 0
-4 -6 0
-4 -7 0
-4 -8 0
-4 -9 0
-4 -10 0
-4 -11 0
-4 -12 0
-4 -13 0
-4 -14 0
-4 -15 0
-4 -16 0
-4 -17 0
-4 -18 0
-4 -19 0
-4 -20 0
-4 -21 0
-4 -22 0
-4 -23 0
-4 -24 0
-4 -25 0
-4 -26 0
-4 -27 0
-4 -28 0
-4 -29 0
-4 -30 0
-5 -6 0
-5 -7 0
-5 -8 0
-5 -9 0
-5 -10 0
-5 -11 0
-5 -12 0
-5 -13 0
-5 -14 0
-5 -15 0
-5 -16 0
-5 -17 0
-5 -18 0
-5 -19 0
-5 -20 0
-5 -21 0
-5 -22 0
-5 -23 0
-5 -24 0
-5 -25 0
-5 -26 0
-5 -27 0
-5 -28 0
-5 -29 0
-5 -30 0
-6 -7 0
-6 -8 0
-6 -9 0
-6 -10 0
-6 -11 0
-6 -12 0
-6 -13 0
-6 -14 0
-6 -15 0
-6 -16 0
-6 -17 0
-6 -18 0
-6 -19 0
-6 -20 0
-6 -21 0
-6 -22 0
-6 -23 0
-6 -24 0
-6 -25 0
-6 -26 0
-6 -27 0
-6 -28 0
-6 -29 0
-6 -30 0
-7 -8 0
-7 -9 0
-7 -10 0
-7 -11 0
-7 -12 0
-7 -13 0
-7 -14 0
-7 -15 0
-7 -16 0
-7 -17 0
-7 -18 0
-7 -19 0
-7 -20 0
-7 -21 0
-7 -22 0
-7 -23 0
-7 -24 0
-7 -25 0
-7 -26 0
-7 -27 0
-7 -28 0
-7 -29 0
-7 -30 0
-8 -9 0
-8 -10 0
-8 -11 0
-8 -12 0
-8 -13 0
-8 -14 0
-8 -15 0
-8 -16 0
-8 -17 0
-8 -18 0
-8 -19 0
-8 -20 0
-8 -21 0
-8 -22 0
-8 -23 0
-8 -24 0
-8 -25 0
-8 -26 0
-8 -27 0
-8 -28 0
-8 -29 0
-8 -30 0
-9 -10 0
-9 -11 0
-9 -12 0
-9 -13 0
-9 -14 0
-9 -15 0
-9 -16 0
-9 -17 0
-9 -18 0
-9 -19 0
-9 -20 0
-9 -21 0
-9 -22 0
-9 -23 0
-9 -24 0
-9 -25 0
-9 -26 0
-9 -27 0
-9 -28 0
-9 -29 0
-9 -30 0
-10 -11 0
-10 -12 0
-10 -13 0
-10 -14 0
-10 -15 0
-10 -16 0
-10 -17 0
-10 -18 0
-10 -19 0
-10 -20 0
-10 -21 0
-10 -22 0
-10 -23 0
-10 -24 0
-10 -25 0
-10 -26 0
-10 -27 0
-10 -28 0
-10 -29 0
-10 -30 0
-11 -12 0
-11 -13 0
-11 -14 0
-11 -15 0
-11 -16 0
-11 -17 0
-11 -18 0
-11 -19 0
-11 -20 0
-11 -21 0
-11 -22 0
-11 -23 0
-11 -24 0
-11 -25 0
-11 -26 0
-11 -27 0
-11 -28 0
-11 -29 0
-11 -30 0
-12 -13 0
-12 -14 0
-12 -15 0
-12 -16 0
-12 -17 0
-12 -18 0
-12 -19 0
-12 -20 0
-12 -21 0
-12 -22 0
-12 -23 0
-12 -24 0
-12 -25 0
-12 -26 0
-12 -27 0
-12 -28 0
-12 -29 0
-12 -30 0
-13 -14 0
-13 -15 0
-13 -16 0
-13 -17 0
-13 -18 0
-13 -19 0
-13 -20 0
-13 -21 0
-13 -22 0
-13 -23 0
-13 -24 0
-13 -25 0
-13 -26 0
-13 -27 0
-13 -28 0
-13 -29 0
-13 -30 0
-14 -15 0
-14 -16 0
-14 -17 0
-14 -18 0
-14 -19 0
-14 -20 0
-14 -21 0
-14 -22 0
-14 -23 0
-14 -24 0
-14 -25 0
-14 -26 0
-14 -27 0
-14 -28 0
-14 -29 0
-14 -30 0
-15 -16 0
-15 -17 0
-15 -18 0
-15 -19 0
-15 -20 0
-15 -21 0
-15 -22 0
-15 -23 0
-15 -24 0
-15 -25 0
-15 -26 0
-15 -27 0
-15 -28 0
-15 -29 0
-15 -30 0
-16 -17 0
-16 -18 0
-16 -19 0
-16 -20 0
-16 -21 0
-16 -22 0
-16 -23 0
-16 -24 0
-16 -25 0
-16 -26 0
-16 -27 0
-16 -28 0
-16 -29 0
-16 -30 0
-17 -18 0
-17 -19 0
-17 -20 0
-17 -21 0
-17 -22 0
-17 -23 0
-17 -24 0
-17 -25 0
-17 -26 0
-17 -27 0
-17 -28 0
-17 -29 0
-17 -30 0
-18 -19 0
-18 -20 0
-18 -21 0
-18 -22 0
-18 -23 0
-18 -24 0
-18 -25 0
-18 -26 0
-18 -27 0
-18 -28 0
-18 -29 0
-18 -30 0
-19 -20 0
-19 -21 0
-19 -22 0
-19 -23 0
-19 -24 0
-19 -25 0
-19 -26 0
-19 -27 0
-19 -28 0
-19 -29 0
-19 -30 0
-20 -21 0
-20 -22 0
-20 -23 0
-20 -24 0
-20 -25 0
-20 -26 0
-20 -27 0
-20 -28 0
-20 -29 0
-20 -30 0
-21 -22 0
-21 -23 0
-21 -24 0
-21 -25 0
-21 -26 0
-21 -27 0
-21 -28 0
-21 -29 0
-21 -30 0
-22 -23 0
-22 -24 0
-22 -25 0
-22 -26 0
-22 -27 0
-22 -28 0
-22 -29 0
-22 -30 0
-23 -24 0
-23 -25 0
-23 -26 0
-23 -27 0
-23 -28 0
-23 -29 0
-23 -30 0
-24 -25 0
-24 -26 0
-24 -27 0
-24 -28 0
-24 -29 0
-24 -30 0
-25 -26 0
-25 -27 0
-25 -28 0
-25 -29 0
-25 -30 0
-26 -27 0
-26 -28 0
-26 -29 0
-26 -30 0
-27 -28 0
-27 -29 0
-27 -30 0
-28 -29 0
-28 -30 0
-29 -30 0
-1 -276 182 0
-62 -277 213 0
-63 -278 244 0
-64 -279 275 0
-2 -280 182 0
-66 -281 213 0
-67 -282 244 0
-68 -283 275 0
-3 -284 182 0
-70 -285 213 0
-71 -286 244 0
-72 -287 275 0
-4 -288 182 0
-74 -289 213 0
-75 -290 244 0
-76 -291 275 0
-5 -292 182 0
-78 -293 213 0
-79 -294 244 0
-80 -295 275 0
-6 -296 182 0
-82 -297 213 0
-83 -298 244 0
-84 -299 275 0
-7 -300 182 0
-86 -301 213 0
-87 -302 244 0
-88 -303 275 0
-8 -304 182 0
-90 -305 213 0
-91 -306 244 0
-92 -307 275 0
-9 -308 182 0
-94 -309 213 0
-95 -310 244 0
-96 -311 275 0
-10 -312 182 0
-98 -313 213 0
-99 -314 244 0
-100 -315 275 0
-11 -316 182 0
-102 -317 213 0
-103 -318 244 0
-104 -319 275 0
-12 -320 182 0
-106 -321 213 0
-107 -322 244 0
-108 -323 275 0
-13 -324 182 0
-110 -325 213 0
-111 -326 244 0
-112 -327 275 0
-14 -328 182 0
-114 -329 213 0
-115 -330 244 0
-116 -331 275 0
-15 -332 182 0
-118 -333 213 0
-119 -334 244 0
-120 -335 275 0
-16 -336 182 0
-122 -337 213 0
-123 -338 244 0
-124 -339 275 0
-17 -340 182 0
-126 -341 213 0
-127 -342 244 0
-128 -343 275 0
-18 -344 182 0
-130 -345 213 0
-131 -346 244 0
-132 -347 275 0
-19 -348 182 0
-134 -349 213 0
-135 -350 244 0
-136 -351 275 0
-20 -352 182 0
-138 -353 213 0
-139 -354 244 0
-140 -355 275 0
-21 -356 182 0
-142 -357 213 0
-143 -358 244 0
-144 -359 275 0
-22 -360 182 0
-146 -361 213 0
-147 -362 244 0
-148 -363 275 0
-23 -364 182 0
-150 -365 213 0
-151 -366 244 0
-152 -367 275 0
-24 -368 182 0
-154 -369 213 0
-155 -370 244 0
-156 -371 275 0
-25 -372 182 0
-158 -373 213 0
-159 -374 244 0
-160 -375 275 0
-26 -376 182 0
-162 -377 213 0
-163 -378 244 0
-164 -379 275 0
-27 -380 182 0
-166 -381 213 0
-167 -382 244 0
-168 -383 275 0
-28 -384 182 0
-170 -385 213 0
-171 -386 244 0
-172 -387 275 0
-29 -388 182 0
-174 -389 213 0
-175 -390 244 0
-176 -391 275 0
-30 -392 182 0
-178 -393 213 0
-179 -394 244 0
-180 -395 275 0
-1 62 0
1 -62 0
-62 63 0
62 -63 0
-63 64 0
63 -64 0
-64 65 0
64 -65 0
-2 66 0
2 -66 0
-66 67 0
66 -67 0
-67 68 0
67 -68 0
-68 69 0
68 -69 0
-3 70 0
3 -70 0
-70 71 0
70 -71 0
-71 72 0
71 -72 0
-72 73 0
72 -73 0
-4 74 0
4 -74 0
-74 75 0
74 -75 0
-75 76 0
75 -76 0
-76 77 0
76 -77 0
-5 78 0
5 -78 0
-78 79 0
78 -79 0
-79 80 0
79 -80 0
-80 81 0
80 -81 0
-6 82 0
6 -82 0
-82 83 0
82 -83 0
-83 84 0
83 -84 0
-84 85 0
84 -85 0
-7 86 0
7 -86 0
-86 87 0
86 -87 0
-87 88 0
87 -88 0
-88 89 0
88 -89 0
-8 90 0
8 -90 0
-90 91 0
90 -91 0
-91 92 0
91 -92 0
-92 93 0
92 -93 0
-9 94 0
9 -94 0
-94 95 0
94 -95 0
-95 96 0
95 -96 0
-96 97 0
96 -97 0
-10 98 0
10 -98 0
-98 99 0
98 -99 0
-99 100 0
99 -100 0
-100 101 0
100 -101 0
-11 102 0
11 -102 0
-102 103 0
102 -103 0
-103 104 0
103 -104 0
-104 105 0
104 -105 0
-12 106 0
12 -106 0
-106 107 0
106 -107 0
-107 108 0
107 -108 0
-108 109 0
108 -109 0
-13 110 0
13 -110 0
-110 111 0
110 -111 0
-111 112 0
111 -112 0
-112 113 0
112 -113 0
-14 114 0
14 -114 0
-114 115 0
114 -115 0
-115 116 0
115 -116 0
-116 117 0
116 -117 0
-15 118 0
15 -118 0
-118 119 0
118 -119 0
-119 120 0
119 -120 0
-120 121 0
120 -121 0
-16 122 0
16 -122 0
-122 123 0
122 -123 0
-123 124 0
123 -124 0
-124 125 0
124 -125 0
-17 126 0
17 -126 0
-126 127 0
126 -127 0
-127 128 0
127 -128 0
-128 129 0
128 -129 0
-18 130 0
18 -130 0
-130 131 0
130 -131 0
-131 132 0
131 -132 0
-132 133 0
132 -133 0
-19 134 0
19 -134 0
-134 135 0
134 -135 0
-135 136 0
135 -136 0
-136 137 0
136 -137 0
-20 138 0
20 -138 0
-138 139 0
138 -139 0
-139 140 0
139 -140 0
-140 141 0
140 -141 0
-21 142 0
21 -142 0
-142 143 0
142 -143 0
-143 144 0
143 -144 0
-144 145 0
144 -145 0
-22 146 0
22 -146 0
-146 147 0
146 -147 0
-147 148 0
147 -148 0
-148 149 0
148 -149 0
-23 150 0
23 -150 0
-150 151 0
150 -151 0
-151 152 0
151 -152 0
-152 153 0
152 -153 0
-24 154 0
24 -154 0
-154 155 0
154 -155 0
-155 156 0
155 -156 0
-156 157 0
156 -157 0
-25 158 0
25 -158 0
-158 159 0
158 -159 0
-159 160 0
159 -160 0
-160 161 0
160 -161 0
-26 162 0
26 -162 0
-162 163 0
162 -163 0
-163 164 0
163 -164 0
-164 165 0
164 -165 0
-27 166 0
27 -166 0
-166 167 0
166 -167 0
-167 168 0
167 -168 0
-168 169 0
168 -169 0
-28 170 0
28 -170 0
-170 171 0
170 -171 0
-171 172 0
171 -172 0
-172 173 0
172 -173 0
-29 174 0
29 -174 0
-174 175 0
174 -175 0
-175 176 0
175 -176 0
-176 177 0
176 -177 0
-30 178 0
30 -178 0
-178 179 0
178 -179 0
-179 180 0
179 -180 0
-180 181 0
180 -181 0
-31 182 0
-1 -276 32 0
-32 1 0
-32 276 0
-2 -280 33 0
-33 2 0
-33 280 0
-3 -284 34 0
-34 3 0
-34 284 0
-4 -288 35 0
-35 4 0
-35 288 0
-5 -292 36 0
-36 5 0
-36 292 0
-6 -296 37 0
-37 6 0
-37 296 0
-7 -300 38 0
-38 7 0
-38 300 0
-8 -304 39 0
-39 8 0
-39 304 0
-9 -308 40 0
-40 9 0
-40 308 0
-10 -312 41 0
-41 10 0
-41 312 0
-11 -316 42 0
-42 11 0
-42 316 0
-12 -320 43 0
-43 12 0
-43 320 0
-13 -324 44 0
-44 13 0
-44 324 0
-14 -328 45 0
-45 14 0
-45 328 0
-15 -332 46 0
-46 15 0
-46 332 0
-16 -336 47 0
-47 16 0
-47 336 0
-17 -340 48 0
-48 17 0
-48 340 0
-18 -344 49 0
-49 18 0
-49 344 0
-19 -348 50 0
-50 19 0
-50 348 0
-20 -352 51 0
-51 20 0
-51 352 0
-21 -356 52 0
-52 21 0
-52 356 0
-22 -360 53 0
-53 22 0
-53 360 0
-23 -364 54 0
-54 23 0
-54 364 0
-24 -368 55 0
-55 24 0
-55 368 0
-25 -372 56 0
-56 25 0
-56 372 0
-26 -376 57 0
-57 26 0
-57 376 0
-27 -380 58 0
-58 27 0
-58 380 0
-28 -384 59 0
-59 28 0
-59 384 0
-29 -388 60 0
-60 29 0
-60 388 0
-30 -392 61 0
-61 30 0
-61 392 0
32 33 34 35 36 37 38 39 40 41 42 43 44 45 46 47 48 49 50 51 52 53 54 55 56 57 58 59 60 61 31 -182 0
-182 213 0
-62 -277 183 0
-183 62 0
-183 277 0
-66 -281 184 0
-184 66 0
-184 281 0
-70 -285 185 0
-185 70 0
-185 285 0
-74 -289 186 0
-186 74 0
-186 289 0
-78 -293 187 0
-187 78 0
-187 293 0
-82 -297 188 0
-188 82 0
-188 297 0
-86 -301 189 0
-189 86 0
-189 301 0
-90 -305 190 0
-190 90 0
-190 305 0
-94 -309 191 0
-191 94 0
-191 309 0
-98 -313 192 0
-192 98 0
-192 313 0
-102 -317 193 0
-193 102 0
-193 317 0
-106 -321 194 0
-194 106 0
-194 321 0
-110 -325 195 0
-195 110 0
-195 325 0
-114 -329 196 0
-196 114 0
-196 329 0
-118 -333 197 0
-197 118 0
-197 333 0
-122 -337 198 0
-198 122 0
-198 337 0
-126 -341 199 0
-199 126 0
-199 341 0
-130 -345 200 0
-200 130 0
-200 345 0
-134 -349 201 0
-201 134 0
-201 349 0
-138 -353 202 0
-202 138 0
-202 353 0
-142 -357 203 0
-203 142 0
-203 357 0
-146 -361 204 0
-204 146 0
-204 361 0
-150 -365 205 0
-205 150 0
-205 365 0
-154 -369 206 0
-206 154 0
-206 369 0
-158 -373 207 0
-207 158 0
-207 373 0
-162 -377 208 0
-208 162 0
-208 377 0
-166 -381 209 0
-209 166 0
-209 381 0
-170 -385 210 0
-210 170 0
-210 385 0
-174 -389 211 0
-211 174 0
-211 389 0
-178 -393 212 0
-212 178 0
-212 393 0
183 184 185 186 187 188 189 190 191 192 193 194 195 196 197 198 199 200 201 202 203 204 205 206 207 208 209 210 211 212 182 -213 0
-213 244 0
-63 -278 214 0
-214 63 0
-214 278 0
-67 -282 215 0
-215 67 0
-215 282 0
-71 -286 216 0
-216 71 0
-216 286 0
-75 -290 217 0
-217 75 0
-217 290 0
-79 -294 218 0
-218 79 0
-218 294 0
-83 -298 219 0
-219 83 0
-219 298 0
-87 -302 220 0
-220 87 0
-220 302 0
-91 -306 221 0
-221 91 0
-221 306 0
-95 -310 222 0
-222 95 0
-222 310 0
-99 -314 223 0
-223 99 0
-223 314 0
-103 -318 224 0
-224 103 0
-224 318 0
-107 -322 225 0
-225 107 0
-225 322 0
-111 -326 226 0
-226 111 0
-226 326 0
-115 -330 227 0
-227 115 0
-227 330 0
-119 -334 228 0
-228 119 0
-228 334 0
-123 -338 229 0
-229 123 0
-229 338 0
-127 -342 230 0
-230 127 0
-230 342 0
-131 -346 231 0
-231 131 0
-231 346 0
-135 -350 232 0
-232 135 0
-232 350 0
-139 -354 233 0
-233 139 0
-233 354 0
-143 -358 234 0
-234 143 0
-234 358 0
-147 -362 235 0
-235 147 0
-235 362 0
-151 -366 236 0
-236 151 0
-236 366 0
-155 -370 237 0
-237 155 0
-237 370 0
-159 -374 238 0
-238 159 0
-238 374 0
-163 -378 239 0
-239 163 0
-239 378 0
-167 -382 240 0
-240 167 0
-240 382 0
-171 -386 241 0
-241 171 0
-241 386 0
-175 -390 242 0
-242 175 0
-242 390 0
-179 -394 243 0
-243 179 0
-243 394 0
214 215 216 217 218 219 220 221 222 223 224 225 226 227 228 229 230 231 232 233 234 235 236 237 238 239 240 241 242 243 213 -244 0
-244 275 0
-64 -279 245 0
-245 64 0
-245 279 0
-68 -283 246 0
-246 68 0
-246 283 0
-72 -287 247 0
-247 72 0
-247 287 0
-76 -291 248 0
-248 76 0
-248 291 0
-80 -295 249 0
-249 80 0
-249 295 0
-84 -299 250 0
-250 84 0
-250 299 0
-88 -303 251 0
-251 88 0
-251 303 0
-92 -307 252 0
-252 92 0
-252 307 0
-96 -311 253 0
-253 96 0
-253 311 0
-100 -315 254 0
-254 100 0
-254 315 0
-104 -319 255 0
-255 104 0
-255 319 0
-108 -323 256 0
-256 108 0
-256 323 0
-112 -327 257 0
-257 112 0
-257 327 0
-116 -331 258 0
-258 116 0
-258 331 0
-120 -335 259 0
-259 120 0
-259 335 0
-124 -339 260 0
-260 124 0
-260 339 0
-128 -343 261 0
-261 128 0
-261 343 0
-132 -347 262 0
-262 132 0
-262 347 0
-136 -351 263 0
-263 136 0
-263 351 0
-140 -355 264 0
-264 140 0
-264 355 0
-144 -359 265 0
-265 144 0
-265 359 0
-148 -363 266 0
-266 148 0
-266 363 0
-152 -367 267 0
-267 152 0
-267 367 0
-156 -371 268 0
-268 156 0
-268 371 0
-160 -375 269 0
-269 160 0
-269 375 0
-164 -379 270 0
-270 164 0
-270 379 0
-168 -383 271 0
-271 168 0
-271 383 0
-172 -387 272 0
-272 172 0
-272 387 0
-176 -391 273 0
-273 176 0
-273 391 0
-180 -395 274 0
-274 180 0
-274 395 0
245 246 247 248 249 250 251 252 253 254 255 256 257 258 259 260 261 262 263 264 265 266 267 268 269 270 271 272 273 274 244 -275 0
